networks/zoo_88_379/zoo_88_379-lower.txt
Number of groups: 22
Flow 1: {1 4 0} {4 48 0} 
Flow 2: {1 7 0} {7 6 0} {6 50 0} 
Flow 3: {7 51 0} 
Flow 4: {1 41 0} {41 8 0} {8 52 0} 
Flow 5: {7 10 0} {10 54 0} 
Flow 6: {10 11 0} {11 55 0} 
Flow 7: {8 12 0} {12 56 0} 
Flow 8: {41 40 0} {40 15 0} {15 59 0} 
Flow 9: {8 20 0} {20 64 0} 
Flow 10: {41 28 0} {28 72 0} 
Flow 11: {10 30 0} {30 74 0} 
Flow 12: {41 35 0} {35 79 0} 
Flow 13: {40 84 0} 
Flow 14: {41 85 0} 
Flow 15: {41 44 0} {44 88 0} 
Flow 16: {2 41 0} Flow 18: {3 44 0} {44 8 0} Flow 19: {8 10 0} Flow 21: {44 41 0} Flow 22: {4 41 0} Flow 24: {5 8 0} {8 41 0} Flow 25: {7 1 0} {1 45 0} 
Flow 25: {6 7 0} Flow 28: {6 8 0} Flow 33: {4 19 0} {19 63 0} 
Flow 40: {8 44 0} Flow 44: {7 8 0} Flow 49: {8 18 0} {18 62 0} 
Flow 55: {41 38 0} {38 82 0} 
Flow 59: {8 7 0} Flow 60: {41 4 0} Flow 61: {8 5 0} {5 49 0} 
Flow 62: {8 6 0} Flow 68: {1 16 0} {16 60 0} 
Flow 75: {41 36 0} {36 80 0} 
Flow 76: {44 38 0} Flow 80: {9 8 0} Flow 84: {10 7 0} Flow 88: {10 8 0} Flow 102: {11 10 0} Flow 120: {12 8 0} Flow 135: {13 41 0} Flow 139: {14 41 0} Flow 141: {15 40 0} {40 41 0} {41 1 0} Flow 156: {16 1 0} Flow 159: {17 29 0} {29 10 0} Flow 162: {18 8 0} Flow 177: {19 4 0} Flow 179: {20 8 0} Flow 190: {21 42 0} {42 41 0} Flow 191: {42 1 0} Flow 194: {22 4 0} Flow 195: {4 1 0} Flow 197: {23 6 0} Flow 202: {24 8 0} Flow 205: {25 8 0} Flow 207: {26 41 0} Flow 211: {27 44 0} Flow 214: {28 41 0} Flow 234: {30 10 0} Flow 249: {31 4 0} Flow 252: {32 41 0} Flow 255: {33 41 0} Flow 258: {34 41 0} Flow 263: {35 41 0} Flow 279: {36 41 0} Flow 295: {37 38 0} {38 41 0} Flow 312: {38 44 0} Flow 313: {39 40 0} Flow 348: {42 40 0} Flow 359: {43 41 0} Time taken running everything: 0 seconds
