networks/zoo_88_379/zoo_88_379-lower.sol
<?xml version = "1.0" encoding="UTF-8" standalone="yes"?>
<CPLEXSolution version="1.2">
 <header
   problemName="networks/zoo_88_379/zoo_88_379-lower.lp"
   solutionName="incumbent"
   solutionIndex="-1"
   objectiveValue="22"
   solutionTypeValue="3"
   solutionTypeString="primal"
   solutionStatusValue="101"
   solutionStatusString="integer optimal solution"
   solutionMethodString="mip"
   primalFeasible="1"
   dualFeasible="1"
   MIPNodes="0"
   MIPIterations="0"
   writeLevel="3"/>
 <quality
   epInt="1.0000000000000001e-05"
   epRHS="9.9999999999999995e-07"
   maxIntInfeas="0"
   maxPrimalInfeas="0"
   maxX="1"
   maxSlack="1"/>
 <variables>
  <variable name="Y(1,4)" index="3" value="1"/>
  <variable name="Y(2,6)" index="71" value="1"/>
  <variable name="Y(3,7)" index="138" value="1"/>
  <variable name="Y(4,8)" index="205" value="1"/>
  <variable name="Y(5,10)" index="273" value="1"/>
  <variable name="Y(6,11)" index="340" value="1"/>
  <variable name="Y(7,12)" index="407" value="1"/>
  <variable name="Y(8,15)" index="476" value="1"/>
  <variable name="Y(9,20)" index="547" value="1"/>
  <variable name="Y(10,28)" index="621" value="1"/>
  <variable name="Y(11,30)" index="689" value="1"/>
  <variable name="Y(12,35)" index="760" value="1"/>
  <variable name="Y(13,40)" index="831" value="1"/>
  <variable name="Y(14,41)" index="898" value="1"/>
  <variable name="Y(15,44)" index="967" value="1"/>
  <variable name="Y(25,1)" index="1584" value="1"/>
  <variable name="Y(33,19)" index="2130" value="1"/>
  <variable name="Y(49,18)" index="3185" value="1"/>
  <variable name="Y(55,38)" index="3601" value="1"/>
  <variable name="Y(61,5)" index="3964" value="1"/>
  <variable name="Y(68,16)" index="4437" value="1"/>
  <variable name="Y(75,36)" index="4919" value="1"/>
  <variable name="X(1,4,1)" index="25014" value="1"/>
  <variable name="X(1,7,2)" index="25394" value="1"/>
  <variable name="X(1,16,68)" index="25839" value="1"/>
  <variable name="X(1,41,4)" index="26154" value="1"/>
  <variable name="X(1,45,25)" index="26554" value="1"/>
  <variable name="X(2,41,16)" index="26924" value="1"/>
  <variable name="X(3,44,18)" index="27305" value="1"/>
  <variable name="X(4,1,195)" index="27861" value="1"/>
  <variable name="X(4,19,33)" index="28078" value="1"/>
  <variable name="X(4,41,22)" index="28446" value="1"/>
  <variable name="X(4,48,1)" index="28804" value="1"/>
  <variable name="X(5,8,24)" index="29206" value="1"/>
  <variable name="X(5,49,61)" index="29622" value="1"/>
  <variable name="X(6,7,25)" index="29965" value="1"/>
  <variable name="X(6,8,28)" index="30347" value="1"/>
  <variable name="X(6,50,2)" index="30700" value="1"/>
  <variable name="X(7,1,25)" index="31102" value="1"/>
  <variable name="X(7,6,2)" index="31458" value="1"/>
  <variable name="X(7,8,44)" index="31879" value="1"/>
  <variable name="X(7,10,5)" index="32219" value="1"/>
  <variable name="X(7,51,3)" index="32596" value="1"/>
  <variable name="X(8,5,61)" index="33033" value="1"/>
  <variable name="X(8,6,62)" index="33413" value="1"/>
  <variable name="X(8,7,59)" index="33789" value="1"/>
  <variable name="X(8,10,19)" index="34128" value="1"/>
  <variable name="X(8,12,7)" index="34495" value="1"/>
  <variable name="X(8,18,49)" index="34916" value="1"/>
  <variable name="X(8,20,9)" index="35255" value="1"/>
  <variable name="X(8,41,24)" index="35649" value="1"/>
  <variable name="X(8,44,40)" index="36044" value="1"/>
  <variable name="X(8,52,4)" index="36387" value="1"/>
  <variable name="X(9,8,80)" index="36842" value="1"/>
  <variable name="X(10,7,84)" index="37225" value="1"/>
  <variable name="X(10,8,88)" index="37608" value="1"/>
  <variable name="X(10,11,6)" index="37905" value="1"/>
  <variable name="X(10,30,11)" index="38289" value="1"/>
  <variable name="X(10,54,5)" index="38662" value="1"/>
  <variable name="X(11,10,102)" index="39138" value="1"/>
  <variable name="X(11,55,6)" index="39421" value="1"/>
  <variable name="X(12,8,120)" index="39914" value="1"/>
  <variable name="X(12,56,7)" index="40180" value="1"/>
  <variable name="X(13,41,135)" index="40687" value="1"/>
  <variable name="X(14,41,139)" index="41070" value="1"/>
  <variable name="X(15,40,141)" index="41451" value="1"/>
  <variable name="X(15,59,8)" index="41697" value="1"/>
  <variable name="X(16,1,156)" index="42224" value="1"/>
  <variable name="X(16,60,68)" index="42515" value="1"/>
  <variable name="X(17,29,159)" index="42985" value="1"/>
  <variable name="X(18,8,162)" index="43367" value="1"/>
  <variable name="X(18,62,49)" index="43633" value="1"/>
  <variable name="X(19,4,177)" index="44140" value="1"/>
  <variable name="X(19,63,33)" index="44375" value="1"/>
  <variable name="X(20,8,179)" index="44900" value="1"/>
  <variable name="X(20,64,9)" index="45109" value="1"/>
  <variable name="X(21,42,190)" index="45669" value="1"/>
  <variable name="X(22,4,194)" index="46052" value="1"/>
  <variable name="X(23,6,197)" index="46434" value="1"/>
  <variable name="X(24,8,202)" index="46818" value="1"/>
  <variable name="X(25,8,205)" index="47200" value="1"/>
  <variable name="X(26,41,207)" index="47581" value="1"/>
  <variable name="X(27,44,211)" index="47964" value="1"/>
  <variable name="X(28,41,214)" index="48346" value="1"/>
  <variable name="X(28,72,10)" index="48521" value="1"/>
  <variable name="X(29,10,159)" index="49049" value="1"/>
  <variable name="X(30,10,234)" index="49503" value="1"/>
  <variable name="X(30,74,11)" index="49659" value="1"/>
  <variable name="X(31,4,249)" index="50276" value="1"/>
  <variable name="X(32,41,252)" index="50658" value="1"/>
  <variable name="X(33,41,255)" index="51040" value="1"/>
  <variable name="X(34,41,258)" index="51422" value="1"/>
  <variable name="X(35,41,263)" index="51806" value="1"/>
  <variable name="X(35,79,12)" index="51934" value="1"/>
  <variable name="X(36,41,279)" index="52580" value="1"/>
  <variable name="X(36,80,75)" index="52755" value="1"/>
  <variable name="X(37,38,295)" index="53354" value="1"/>
  <variable name="X(38,41,295)" index="53733" value="1"/>
  <variable name="X(38,44,312)" index="54129" value="1"/>
  <variable name="X(38,82,55)" index="54251" value="1"/>
  <variable name="X(39,40,313)" index="54888" value="1"/>
  <variable name="X(40,15,8)" index="54962" value="1"/>
  <variable name="X(40,41,141)" index="55474" value="1"/>
  <variable name="X(40,84,13)" index="55725" value="1"/>
  <variable name="X(41,1,141)" index="56232" value="1"/>
  <variable name="X(41,4,60)" index="56530" value="1"/>
  <variable name="X(41,8,4)" index="56853" value="1"/>
  <variable name="X(41,28,10)" index="57238" value="1"/>
  <variable name="X(41,35,12)" index="57619" value="1"/>
  <variable name="X(41,36,75)" index="58061" value="1"/>
  <variable name="X(41,38,55)" index="58420" value="1"/>
  <variable name="X(41,40,8)" index="58752" value="1"/>
  <variable name="X(41,44,15)" index="59138" value="1"/>
  <variable name="X(41,85,14)" index="59516" value="1"/>
  <variable name="X(42,1,191)" index="60072" value="1"/>
  <variable name="X(42,40,348)" index="60608" value="1"/>
  <variable name="X(42,41,190)" index="60829" value="1"/>
  <variable name="X(43,41,359)" index="61377" value="1"/>
  <variable name="X(44,8,18)" index="61415" value="1"/>
  <variable name="X(44,38,76)" index="61852" value="1"/>
  <variable name="X(44,41,21)" index="62176" value="1"/>
  <variable name="X(44,88,15)" index="62549" value="1"/>
 </variables>
</CPLEXSolution>
